40
1 0 16
2 0 23
2 1 30
3 0 16
3 1 3
3 2 26
4 0 18
4 1 21
4 2 3
4 3 28
5 0 13
5 1 5
5 2 23
5 3 31
5 4 17
6 0 11
6 1 27
6 2 21
6 3 3
6 4 11
6 5 22
7 0 5
7 1 16
7 2 3
7 3 13
7 4 21
7 5 27
7 6 25
8 0 9
8 1 10
8 2 11
8 3 11
8 4 19
8 5 20
8 6 28
8 7 16
9 0 21
9 1 25
9 2 12
9 3 15
9 4 7
9 5 23
9 6 7
9 7 5
9 8 11
10 0 31
10 1 7
10 2 15
10 3 24
10 4 5
10 5 21
10 6 23
10 7 27
10 8 18
10 9 15
11 0 25
11 1 24
11 2 17
11 3 25
11 4 7
11 5 30
11 6 17
11 7 26
11 8 20
11 9 16
11 10 14
12 0 18
12 1 8
12 2 4
12 3 25
12 4 16
12 5 14
12 6 23
12 7 18
12 8 26
12 9 29
12 10 14
12 11 25
13 0 17
13 1 2
13 2 23
13 3 10
13 4 8
13 5 22
13 6 3
13 7 13
13 8 9
13 9 19
13 10 7
13 11 25
13 12 18
14 0 16
14 1 28
14 2 27
14 3 19
14 4 14
14 5 29
14 6 11
14 7 3
14 8 17
14 9 17
14 10 10
14 11 17
14 12 26
14 13 17
15 0 14
15 1 11
15 2 20
15 3 3
15 4 1
15 5 16
15 6 6
15 7 17
15 8 4
15 9 6
15 10 10
15 11 25
15 12 9
15 13 3
15 14 24
16 0 23
16 1 27
16 2 1
16 3 10
16 4 18
16 5 4
16 6 31
16 7 18
16 8 5
16 9 28
16 10 12
16 11 20
16 12 14
16 13 19
16 14 6
16 15 13
17 0 25
17 1 31
17 2 22
17 3 14
17 4 29
17 5 1
17 6 24
17 7 24
17 8 6
17 9 17
17 10 16
17 11 4
17 12 8
17 13 15
17 14 4
17 15 10
17 16 30
18 0 16
18 1 20
18 2 12
18 3 15
18 4 16
18 5 30
18 6 17
18 7 28
18 8 13
18 9 1
18 10 19
18 11 16
18 12 7
18 13 7
18 14 3
18 15 31
18 16 28
18 17 15
19 0 28
19 1 1
19 2 7
19 3 15
19 4 22
19 5 15
19 6 29
19 7 27
19 8 23
19 9 11
19 10 4
19 11 24
19 12 14
19 13 9
19 14 7
19 15 19
19 16 6
19 17 1
19 18 1
20 0 28
20 1 10
20 2 13
20 3 5
20 4 11
20 5 21
20 6 18
20 7 9
20 8 16
20 9 1
20 10 20
20 11 12
20 12 28
20 13 12
20 14 27
20 15 17
20 16 10
20 17 15
20 18 6
20 19 16
21 0 19
21 1 6
21 2 18
21 3 25
21 4 8
21 5 30
21 6 21
21 7 20
21 8 20
21 9 5
21 10 15
21 11 28
21 12 21
21 13 13
21 14 5
21 15 1
21 16 3
21 17 24
21 18 17
21 19 3
21 20 22
22 0 9
22 1 10
22 2 12
22 3 21
22 4 17
22 5 5
22 6 26
22 7 9
22 8 13
22 9 24
22 10 19
22 11 13
22 12 10
22 13 30
22 14 23
22 15 20
22 16 23
22 17 18
22 18 1
22 19 29
22 20 5
22 21 24
23 0 29
23 1 15
23 2 17
23 3 27
23 4 24
23 5 14
23 6 25
23 7 10
23 8 10
23 9 8
23 10 1
23 11 19
23 12 7
23 13 29
23 14 19
23 15 27
23 16 8
23 17 21
23 18 5
23 19 13
23 20 9
23 21 16
23 22 8
24 0 30
24 1 14
24 2 25
24 3 30
24 4 27
24 5 16
24 6 31
24 7 30
24 8 16
24 9 31
24 10 20
24 11 30
24 12 12
24 13 15
24 14 1
24 15 4
24 16 17
24 17 16
24 18 13
24 19 4
24 20 26
24 21 26
24 22 4
24 23 26
25 0 31
25 1 21
25 2 30
25 3 3
25 4 28
25 5 16
25 6 9
25 7 23
25 8 8
25 9 29
25 10 8
25 11 21
25 12 21
25 13 21
25 14 20
25 15 15
25 16 28
25 17 10
25 18 23
25 19 23
25 20 19
25 21 30
25 22 18
25 23 31
25 24 23
26 0 16
26 1 28
26 2 13
26 3 7
26 4 8
26 5 27
26 6 31
26 7 17
26 8 3
26 9 22
26 10 22
26 11 12
26 12 23
26 13 13
26 14 16
26 15 27
26 16 7
26 17 31
26 18 5
26 19 12
26 20 28
26 21 28
26 22 10
26 23 16
26 24 1
26 25 10
27 0 12
27 1 10
27 2 5
27 3 3
27 4 25
27 5 4
27 6 27
27 7 2
27 8 7
27 9 18
27 10 29
27 11 30
27 12 21
27 13 14
27 14 3
27 15 13
27 16 31
27 17 18
27 18 9
27 19 18
27 20 25
27 21 28
27 22 21
27 23 20
27 24 10
27 25 16
27 26 20
28 0 24
28 1 4
28 2 9
28 3 14
28 4 27
28 5 1
28 6 6
28 7 17
28 8 17
28 9 21
28 10 12
28 11 6
28 12 20
28 13 20
28 14 8
28 15 11
28 16 8
28 17 22
28 18 14
28 19 4
28 20 18
28 21 28
28 22 12
28 23 20
28 24 18
28 25 23
28 26 13
28 27 15
29 0 1
29 1 3
29 2 17
29 3 1
29 4 12
29 5 3
29 6 15
29 7 18
29 8 24
29 9 31
29 10 20
29 11 18
29 12 29
29 13 26
29 14 25
29 15 17
29 16 20
29 17 31
29 18 5
29 19 3
29 20 15
29 21 18
29 22 30
29 23 31
29 24 13
29 25 23
29 26 27
29 27 31
29 28 3
30 0 22
30 1 18
30 2 1
30 3 11
30 4 26
30 5 28
30 6 7
30 7 19
30 8 4
30 9 15
30 10 13
30 11 4
30 12 5
30 13 23
30 14 29
30 15 2
30 16 27
30 17 31
30 18 31
30 19 12
30 20 10
30 21 16
30 22 20
30 23 8
30 24 27
30 25 2
30 26 9
30 27 28
30 28 17
30 29 11
31 0 17
31 1 18
31 2 21
31 3 8
31 4 9
31 5 31
31 6 24
31 7 29
31 8 22
31 9 7
31 10 17
31 11 22
31 12 13
31 13 22
31 14 11
31 15 4
31 16 7
31 17 19
31 18 11
31 19 28
31 20 26
31 21 10
31 22 20
31 23 28
31 24 14
31 25 29
31 26 20
31 27 10
31 28 24
31 29 19
31 30 15
32 0 2
32 1 31
32 2 8
32 3 24
32 4 5
32 5 9
32 6 14
32 7 13
32 8 20
32 9 25
32 10 21
32 11 9
32 12 21
32 13 30
32 14 27
32 15 22
32 16 29
32 17 4
32 18 26
32 19 2
32 20 22
32 21 2
32 22 28
32 23 16
32 24 31
32 25 17
32 26 17
32 27 26
32 28 26
32 29 22
32 30 20
32 31 10
33 0 5
33 1 28
33 2 1
33 3 20
33 4 20
33 5 13
33 6 4
33 7 26
33 8 21
33 9 2
33 10 2
33 11 12
33 12 22
33 13 21
33 14 13
33 15 5
33 16 18
33 17 27
33 18 20
33 19 15
33 20 20
33 21 27
33 22 16
33 23 8
33 24 21
33 25 27
33 26 21
33 27 21
33 28 28
33 29 13
33 30 15
33 31 24
33 32 20
34 0 2
34 1 8
34 2 22
34 3 18
34 4 29
34 5 13
34 6 10
34 7 9
34 8 21
34 9 29
34 10 10
34 11 28
34 12 25
34 13 19
34 14 26
34 15 27
34 16 22
34 17 13
34 18 7
34 19 31
34 20 28
34 21 16
34 22 16
34 23 25
34 24 20
34 25 12
34 26 3
34 27 6
34 28 15
34 29 2
34 30 29
34 31 10
34 32 31
34 33 25
35 0 24
35 1 11
35 2 8
35 3 16
35 4 15
35 5 5
35 6 25
35 7 10
35 8 18
35 9 3
35 10 22
35 11 28
35 12 12
35 13 22
35 14 8
35 15 30
35 16 10
35 17 31
35 18 24
35 19 29
35 20 19
35 21 5
35 22 27
35 23 4
35 24 3
35 25 14
35 26 11
35 27 13
35 28 19
35 29 16
35 30 8
35 31 28
35 32 11
35 33 24
35 34 15
36 0 9
36 1 28
36 2 12
36 3 4
36 4 17
36 5 26
36 6 24
36 7 8
36 8 30
36 9 14
36 10 7
36 11 28
36 12 11
36 13 25
36 14 21
36 15 13
36 16 15
36 17 30
36 18 8
36 19 22
36 20 18
36 21 6
36 22 16
36 23 22
36 24 26
36 25 28
36 26 6
36 27 29
36 28 30
36 29 1
36 30 26
36 31 25
36 32 9
36 33 13
36 34 9
36 35 3
37 0 6
37 1 17
37 2 26
37 3 7
37 4 19
37 5 3
37 6 13
37 7 7
37 8 28
37 9 31
37 10 25
37 11 17
37 12 14
37 13 14
37 14 15
37 15 26
37 16 22
37 17 28
37 18 6
37 19 22
37 20 20
37 21 14
37 22 23
37 23 31
37 24 21
37 25 28
37 26 26
37 27 24
37 28 18
37 29 19
37 30 11
37 31 14
37 32 31
37 33 8
37 34 21
37 35 19
37 36 21
38 0 4
38 1 7
38 2 15
38 3 2
38 4 27
38 5 26
38 6 29
38 7 20
38 8 27
38 9 24
38 10 26
38 11 15
38 12 28
38 13 5
38 14 18
38 15 1
38 16 26
38 17 28
38 18 23
38 19 21
38 20 1
38 21 3
38 22 26
38 23 18
38 24 1
38 25 8
38 26 17
38 27 23
38 28 2
38 29 31
38 30 5
38 31 25
38 32 19
38 33 14
38 34 25
38 35 9
38 36 19
38 37 23
39 0 2
39 1 7
39 2 8
39 3 18
39 4 22
39 5 29
39 6 24
39 7 26
39 8 30
39 9 6
39 10 4
39 11 21
39 12 3
39 13 23
39 14 23
39 15 30
39 16 21
39 17 7
39 18 27
39 19 17
39 20 27
39 21 3
39 22 31
39 23 23
39 24 24
39 25 17
39 26 5
39 27 18
39 28 26
39 29 30
39 30 28
39 31 29
39 32 7
39 33 20
39 34 13
39 35 28
39 36 7
39 37 30
39 38 2
